interface ihello
{
  in void hello ();
  behavior
  {
    on hello:;
  }
}

component nested_blocking
{
  provides ihello p;
  behavior
  {
    blocking on p.hello (): [true] blocking p.reply ();
  }
}
